Linux optc-01-08 4.15.0-58-generic #64-Ubuntu SMP Tue Aug 6 11:12:41 UTC 2019 x86_64 x86_64 x86_64 GNU/Linux

top - 18:36:17 up 1 day,  8:37,  0 users,  load average: 0,35, 0,76, 0,91
Tasks: 290 gesamt,   1 laufend, 149 schlafend,   0 gestoppt,   0 Zombie
%CPU(s):  7,4 be,  0,2 sy,  0,0 ni, 92,4 un,  0,0 wa,  0,0 hi,  0,0 si,  0,0 st
KiB Spch : 97514992 gesamt, 95296936 frei,   648548 belegt,  1569512 Puff/Cache
KiB Swap:  8388604 gesamt,  8388604 frei,        0 belegt. 96125400 verfü Spch 

  PID USER      PR  NI    VIRT    RES    SHR S  %CPU %MEM     ZEIT+ BEFEHL
    1 root      20   0  233796   9396   6696 S   0,0  0,0   0:11.27 systemd
    2 root      20   0       0      0      0 S   0,0  0,0   0:00.10 kthreadd
    3 root      20   0       0      0      0 I   0,0  0,0   0:03.29 kworker/0:0
    4 root       0 -20       0      0      0 I   0,0  0,0   0:00.00 kworker/0:+
    6 root      20   0       0      0      0 I   0,0  0,0   0:00.00 kworker/u3+
    7 root       0 -20       0      0      0 I   0,0  0,0   0:00.00 mm_percpu_+
    8 root      20   0       0      0      0 S   0,0  0,0   0:00.03 ksoftirqd/0
    9 root      20   0       0      0      0 I   0,0  0,0   0:08.59 rcu_sched

hard time limit: 04:10:00
hard mem limit: 55100

SLURM jobID: 2182420

@01 /nfs/optimi/kombadon/IP/miplib2017/s100.mps.gz ===========
-----------------------------
Do 22. Aug 18:36:17 CEST 2019
-----------------------------
@03 1566491777
@05 7200
SCIP version 6.0.0 [precision: 8 byte] [memory: block] [mode: optimized] [LP solver: CPLEX 12.8.0.0] [GitHash: 41ab6e0014]
Copyright (C) 2002-2018 Konrad-Zuse-Zentrum fuer Informationstechnik Berlin (ZIB)

External codes: 
  Readline 7.0         GNU library for command line editing (gnu.org/s/readline)
  CPLEX 12.8.0.0       Linear Programming Solver developed by IBM (www.cplex.com)
  CppAD 20180000.0     Algorithmic Differentiation of C++ algorithms developed by B. Bell (www.coin-or.org/CppAD)
  ZLIB 1.2.11          General purpose compression library by J. Gailly and M. Adler (zlib.net)
  GMP 6.1.2            GNU Multiple Precision Arithmetic Library developed by T. Granlund (gmplib.org)
  bliss 0.73p          Computing Graph Automorphism Groups by T. Junttila and P. Kaski (http://www.tcs.hut.fi/Software/bliss/)

user parameter file <scip.set> not found - using default parameters

SCIP> 
SCIP> set load /home/optimi/bzfhende/opti/scip-opti/check/../settings/enable_treeeprofile.set
loaded parameter file </home/optimi/bzfhende/opti/scip-opti/check/../settings/enable_treeprofile.set>
SCIP> set misc referencevalue -0.1697235270583
misc/referencevalue = -0.1697235270583
SCIP> set limits time 7200
limits/time = 7200
SCIP> set limits nodes 2100000000
limits/nodes = 2100000000
SCIP> set limits memory 50000
limits/memory = 50000
SCIP> set lp advanced threads 1
lp/threads = 1
SCIP> set timing clocktype 1
timing/clocktype = 1
SCIP> set display freq 10000
display/freq = 10000
SCIP> set memory savefac 1.0
memory/savefac = 1
SCIP> set save /home/optimi/bzfhende/opti/scip-opti/check/treesize.estimation.jouurnal.3/bzfhende.miplib2017.196_s100.scip.M640.enable_treeprofile.set
saved parameter file </home/optimi/bzfhende/opti/scip-opti/check/treesize.estimation.journal.3/bzfhende.miplib2017.196_s100.scip.M640.enable_treeprofile.set>
SCIP> read /nfs/optimi/kombadon/IP/miplib2017/s100.mps.gz

read problem </nfs/optimi/kombadon/IP/miplib2017/s100.mps.gz>
============

original problem has 364417 variables (364417 bin, 0 int, 0 impl, 0 cont) and 14733 constraints
SCIP> display parameters

number of parameters = 2448
non-default parameter settings:
display/freq = 10000
limits/time = 7200
limits/nodes = 2100000000
limits/memory = 50000
lp/threads = 1
memory/savefac = 1
misc/referencevalue = -0.1697235270583
presolving/maxrestarts = 0
estimates/profile/enabled = TRUE
estimates/profile/maxdepthfactor = 10
estimates/profile/freq = 0

SCIP> optimize

Activating tree profile data collection
presolving:
(round 1, fast)       29706 del vars, 702 del conss, 0 add conss, 29559 chg bounds, 8 chg sides, 0 chg coeffs, 0 upgd conss, 0 impls, 616 clqs
(round 2, exhaustive) 29706 del vars, 706 del conss, 0 add conss, 29559 chg bounds, 8 chg sides, 0 chg coeffs, 623 upgd conss, 0 impls, 616 clqs
(round 3, medium)     29728 del vars, 728 del conss, 0 add conss, 29559 chg bounds, 8 chg sides, 0 chg coeffs, 623 upgd conss, 0 impls, 616 clqs
(round 4, fast)       29728 del vars, 737 del conss, 9 add conss, 29559 chg bounds, 8 chg sides, 0 chg coeffs, 623 upgd conss, 0 impls, 632 clqs
(round 5, exhaustive) 29732 del vars, 741 del conss, 9 add conss, 29559 chg bounds, 8 chg sides, 0 chg coeffs, 632 upgd conss, 0 impls, 636 clqs
(round 6, exhaustive) 29741 del vars, 752 del conss, 11 add conss, 29559 chg bounds, 8 chg sides, 0 chg coeffs, 632 upgd conss, 0 impls, 643 clqs
   (75.6s) probing: 1000/334671 (0.3%) - 21 fixings, 0 aggregations, 3636241 implications, 0 bound changes
   (89.3s) probing: 1293/334671 (0.4%) - 21 fixings, 0 aggregations, 3921630 implications, 0 bound changes
   (89.3s) probing aborted: 1000/1000 successive useless probings
presolving (7 rounds: 7 fast, 5 medium, 4 exhaustive):
 29767 deleted vars, 757 deleted constraints, 11 added constraints, 29559 tightened bounds, 0 added holes, 8 changed sides, 0 changed coefficients
 0 implications, 3921896 cliques
presolved problem has 334650 variables (334650 bin, 0 int, 0 impl, 0 cont) and 13987 constraints
      8 constraints of type <knapsack>
    575 constraints of type <setppc>
  13404 constraints of type <linear>
Presolving Time: 88.72

 time | node  | left  |LP iter|LP it/n| mem |mdpt |frac |vars |cons |cols |rows |cuts |confs|strbr|  dualbound   | primalbound  |  gap   
k94.9s|     1 |     0 |    66 |     - |3614M|   0 |   - | 334k|  13k| 334k|  13k|   0 |   0 |   0 |-1.252225e+03 | 0.000000e+00 |    Inf 
  441s|     1 |     0 |150580 |     - |3714M|   0 | 197 | 334k|  14k| 334k|  13k|   0 | 126 |   0 |-1.705246e-01 | 0.000000e+00 |    Inf 
  483s|     1 |     0 |154709 |     - |3768M|   0 | 216 | 334k|  14k| 334k|  13k|   4 | 126 |   0 |-1.703105e-01 | 0.000000e+00 |    Inf 
  503s|     1 |     0 |155014 |     - |3776M|   0 | 218 | 334k|  14k| 334k|  13k|   5 | 133 |   0 |-1.703105e-01 | 0.000000e+00 |    Inf 
  521s|     1 |     0 |155018 |     - |3778M|   0 | 218 | 334k|  14k| 334k|  13k|   6 | 134 |   0 |-1.703105e-01 | 0.000000e+00 |    Inf 
  546s|     1 |     0 |156809 |     - |3779M|   0 | 207 | 334k|  14k| 334k|  13k|   7 | 134 |   0 |-1.703002e-01 | 0.000000e+00 |    Inf 
  568s|     1 |     0 |157692 |     - |3781M|   0 | 247 | 334k|  14k| 334k|  13k|   8 | 134 |   0 |-1.702918e-01 | 0.000000e+00 |    Inf 
L1044s|     1 |     0 |308447 |     - |3823M|   0 | 247 | 334k|  14k| 334k|  13k|   8 | 134 |   0 |-1.702918e-01 |-1.371920e-01 |  24.13%
L1093s|     1 |     0 |308447 |     - |3823M|   0 | 247 | 334k|  14k| 334k|  13k|   8 | 134 |   0 |-1.702918e-01 |-1.456904e-01 |  16.89%
L1118s|     1 |     0 |308447 |     - |3828M|   0 | 247 | 334k|  14k| 334k|  13k|   8 | 134 |   0 |-1.702918e-01 |-1.463063e-01 |  16.39%
 1120s|     1 |     0 |308447 |     - |3828M|   0 | 247 | 334k|  14k| 334k|  13k|   8 | 134 |   0 |-1.702918e-01 |-1.463063e-01 |  16.39%
 1141s|     1 |     0 |309042 |     - |3834M|   0 | 224 | 334k|  14k| 334k|  13k|  10 | 134 |   0 |-1.702902e-01 |-1.463063e-01 |  16.39%
SCIP nodes: 1 Estimation: -1
 1248s|     1 |     2 |309042 |     - |3835M|   0 | 224 | 334k|  14k| 334k|  13k|  10 | 144 |  47 |-1.702879e-01 |-1.463063e-01 |  16.39%
   (1251.2s) symmetry computation started: requiring (bin +, int -, cont -), (fixed: bin -, int +, cont -)
   (1252.9s) symmetry computation finished: 1 generators found (max: 191, log10 of symmetry group size: 0.3)
   (1252.9s) turning off presolver <domcol> for remaining computations in order to avoid conflicts
SCIP nodes: 2 Estimation: -1
SCIP nodes: 4 Estimation: -1
SCIP nodes: 8 Estimation: -1
SCIP nodes: 16 Estimation: -1
SCIP nodes: 32 Estimation: -1
L3026s|    40 |    41 |561560 |10342.9 |4938M|  21 | 185 | 334k|  14k| 334k|  13k|  11 | 455 | 443 |-1.702828e-01 |-1.543932e-01 |  10.29%
e3434s|    57 |    58 |655924 |8888.2 |4999M|  23 |   - | 334k|  14k| 334k|  13k|   0 | 475 | 495 |-1.702828e-01 |-1.649715e-01 |   3.22%
SCIP nodes: 64 Estimation: -1
SCIP nodes: 128 Estimation: -1
SCIP nodes: 256 Estimation: -1
SCIP nodes: 512 Estimation: -1
 time | node  | left  |LP iter|LP it/n| mem |mdpt |frac |vars |cons |cols |rows |cuts |confs|strbr|  dualbound   | primalbound  |  gap   
g5004s|   587 |   104 |947674 |1347.2 |6054M|  64 |   - | 334k|  14k| 334k|  13k|   0 | 911 | 702 |-1.702828e-01 |-1.689082e-01 |   0.81%
*5546s|   883 |   102 |  1055k|1017.9 |6271M|  64 |   - | 334k|  14k| 334k|  13k|  46 |1216 | 843 |-1.702828e-01 |-1.695858e-01 |   0.41%
SCIP nodes: 1024 Estimation: 3.0369e+08
SCIP nodes: 2048 Estimation: -1

SCIP Status        : solving was interrupted [time limit reached]
Solving Time (sec) : 7200.01
Solving Nodes      : 2463
Primal Bound       : -1.69585839993226e-01 (39 solutions)
Dual Bound         : -1.70260747818891e-01
Gap                : 0.40 %

SCIP> display statistics

SCIP Status        : solving was interrupted [time limit reached]
Total Time         :    7201.45
  solving          :    7200.01
  presolving       :      88.72 (included in solving)
  reading          :       1.44
  copying          :      13.26 (21 #copies) (minimal 0.54, maximal 0.73, average 0.63)
Original Problem   :
  Problem name     : s100
  Variables        : 364417 (364417 binary, 0 integer, 0 implicit integer, 0 continuous)
  Constraints      : 14733 initial, 14733 maximal
  Objective        : minimize, 349755 non-zeros (abs.min = 0.00251735, abs.max = 0.005)
Presolved Problem  :
  Problem name     : t_s100
  Variables        : 334650 (334650 binary, 0 integer, 0 implicit integer, 0 continuous)
  Constraints      : 13987 initial, 15046 maximal
  Objective        : minimize, 320712 non-zeros (abs.min = 0.00251735, abs.max = 0.005)
Presolvers         :   ExecTime  SetupTime  Calls  FixedVars   AggrVars   ChgTypes  ChgBounds   AddHoles    DelCons    AddCons   ChgSides   ChgCoefs
  boundshift       :       0.00       0.00      0          0          0          0          0          0          0          0          0          0
  convertinttobin  :       0.00       0.00      0          0          0          0          0          0          0          0          0          0
  domcol           :       0.24       0.00      1          0          0          0          0          0          0          0          0          0
  dualagg          :       0.00       0.00      0          0          0          0          0          0          0          0          0          0
  dualcomp         :       0.00       0.00      0          0          0          0          0          0          0          0          0          0
  dualinfer        :       0.00       0.00      0          0          0          0          0          0          0          0          0          0
  gateextraction   :       0.00       0.00      0          0          0          0          0          0          0          0          0          0
  implics          :       0.04       0.00      5          0          0          0          0          0          0          0          0          0
  inttobinary      :       0.00       0.00      0          0          0          0          0          0          0          0          0          0
  qpkktref         :       0.00       0.00      0          0          0          0          0          0          0          0          0          0
  redvub           :       0.00       0.00      0          0          0          0          0          0          0          0          0          0
  sparsify         :       4.76       0.00      1          0          0          0          0          0          0          0          0          0
  stuffing         :       0.00       0.00      0          0          0          0          0          0          0          0          0          0
  symbreak         :       0.00       0.00      0          0          0          0          0          0          0          0          0          0
  symmetry         :       0.00       0.00      0          0          0          0          0          0          0          0          0          0
  trivial          :       0.09       0.00      7          0          0          0          0          0          0          0          0          0
  tworowbnd        :       0.00       0.00      0          0          0          0          0          0          0          0          0          0
  dualfix          :       0.08       0.00      7        141          0          0          0          0          0          0          0          0
  genvbounds       :       0.00       0.00      0          0          0          0          0          0          0          0          0          0
  orbitalfixing    :       0.00       0.00      0          0          0          0          0          0          0          0          0          0
  probing          :      75.79       0.02      1         21          0          0          0          0          0          0          0          0
  pseudoobj        :       0.00       0.00      0          0          0          0          0          0          0          0          0          0
  vbounds          :       0.20       0.00      1          0          0          0          0          0          0          0          0          0
  knapsack         :       0.48       0.02     12          0          0          0          0          0          0          0          0          0
  setppc           :       1.17       0.02     12          0         40          0          0          0         51         11          0          0
  linear           :       4.67       0.38     10      29559          6          0      29559          0        706          0          8          0
  logicor          :       0.00       0.00      0          0          0          0          0          0          0          0          0          0
  benders          :       0.00       0.00      0          0          0          0          0          0          0          0          0          0
  components       :       0.31       0.00      1          0          0          0          0          0          0          0          0          0
  root node        :          -          -      -     138719          -          -     138719          -          -          -          -          -
Constraints        :     Number  MaxNumber  #Separate #Propagate    #EnfoLP    #EnfoRelax  #EnfoPS    #Check   #ResProp    Cutoffs    DomReds       Cuts    Applied      Conss   Children
  benderslp        :          0          0          0          0       1755          0          0        262          0          0          0          0          0          0          0
  integral         :          0          0          0          0       1755          0          0        262          0          0       2657          0          0       1665       3156
  knapsack         :          8+        24          7     283301          1          0          0        257     561487          9      82691          2          1          0          0
  setppc           :        575+       624          7     285396          1          0          0        173    5006754         52    1548683          0          0          0          0
  linear           :      13404      13404          7     285347          1          0          0         46    7912206        341    4681504          0          0          0          0
  logicor          :          0+      1014          7       6534          0          0          0          0        427         55        784          0          0          0          0
  benders          :          0          0          0          0          1          0          0         39          0          0          0          0          0          0          0
  countsols        :          0          0          0          0          1          0          0         39          0          0          0          0          0          0          0
  components       :          0          0          0          0          0          0          0          0          0          0          0          0          0          0          0
Constraint Timings :  TotalTime  SetupTime   Separate  Propagate     EnfoLP     EnfoPS     EnfoRelax   Check    ResProp    SB-Prop
  benderslp        :       0.00       0.00       0.00       0.00       0.00       0.00       0.00       0.00       0.00       0.00
  integral         :    2028.59       0.00       0.00       0.00    2028.36       0.00       0.00       0.23       0.00       0.00
  knapsack         :      86.58       0.02       0.27       9.24       0.00       0.00       0.00       6.09      69.07       1.89
  setppc           :     167.98       0.02       0.08       7.83       0.00       0.00       0.00       2.70     143.07      14.28
  linear           :     209.30       0.38     102.74      64.62       0.00       0.00       0.00       1.97      13.51      26.08
  logicor          :      21.37       0.00       0.00      12.96       0.00       0.00       0.00       0.00       0.15       8.26
  benders          :       0.00       0.00       0.00       0.00       0.00       0.00       0.00       0.00       0.00       0.00
  countsols        :       0.00       0.00       0.00       0.00       0.00       0.00       0.00       0.00       0.00       0.00
  components       :       0.09       0.00       0.00       0.09       0.00       0.00       0.00       0.00       0.00       0.00
Propagators        : #Propagate   #ResProp    Cutoffs    DomReds
  dualfix          :          3          0          0          0
  genvbounds       :          0          0          0          0
  nlobbt           :          0          0          0          0
  obbt             :          0          0          0          0
  orbitalfixing    :       3084          0          0       6942
  probing          :          0          0          0          0
  pseudoobj        :      19329          0          0          0
  redcost          :       5539          0          0    2845627
  rootredcost      :          5          0          0     138494
  vbounds          :     282951          0          0          0
Propagator Timings :  TotalTime  SetupTime   Presolve  Propagate    ResProp    SB-Prop
  dualfix          :       0.12       0.00       0.08       0.04       0.00       0.00
  genvbounds       :       0.13       0.00       0.00       0.13       0.00       0.00
  nlobbt           :       0.00       0.00       0.00       0.00       0.00       0.00
  obbt             :       0.00       0.00       0.00       0.00       0.00       0.00
  orbitalfixing    :       9.03       0.00       0.00       8.99       0.00       0.04
  probing          :      75.81       0.02      75.79       0.00       0.00       0.00
  pseudoobj        :       0.33       0.00       0.00       0.30       0.00       0.03
  redcost          :     458.37       0.00       0.00     458.37       0.00       0.00
  rootredcost      :       0.98       0.00       0.00       0.98       0.00       0.00
  vbounds          :       7.71       0.00       0.20       7.50       0.00       0.01
Orbital fixing     :
  vars fixed to 0  :       6942
  vars fixed to 1  :          0
Conflict Analysis  :       Time      Calls    Success    DomReds  Conflicts   Literals    Reconvs ReconvLits   Dualrays   Nonzeros   LP Iters   (pool size: [10000,10000])
  propagation      :      68.65        244        242          -       2981     7958.9         35      221.2          -          -          -
  infeasible LP    :      34.11         44         44          -        680    16588.1          4       35.5         37    14606.6          0
  bound exceed. LP :     443.27        495        121          -       2778    34270.2          1       37.0          0        0.0       2420
  strong branching :       0.00          0          0          -          0        0.0          0        0.0          -          -          0
  pseudo solution  :       0.00          0          0          -          0        0.0          0        0.0          -          -          -
  applied globally :      10.76          -          -          0       3256     9400.6          -          -         37          -          -
  applied locally  :          -          -          -          0          4    80496.2          -          -          0          -          -
Separators         :   ExecTime  SetupTime      Calls    Cutoffs    DomReds       Cuts    Applied      Conss
  cut pool         :       0.60                   573          -          -        435          -          -    (maximal pool size: 92)
  aggregation      :      12.54       0.00        162          0          0          0          0          0
  cgmip            :       0.00       0.00          0          0          0          0          0          0
  clique           :       8.35       0.00          7          0          0          0          3          0
  closecuts        :       0.00       0.00          0          0          0          0          0          0
  cmir             :       0.00       0.00          0          0          0          0          0          0
  convexproj       :       0.00       0.00          0          0          0          0          0          0
  disjunctive      :       0.00       0.00          0          0          0          0          0          0
  eccuts           :       0.00       0.00          0          0          0          0          0          0
  flowcover        :       0.00       0.00          0          0          0          0          0          0
  gauge            :       0.00       0.00          0          0          0          0          0          0
  gomory           :      34.24       0.00        135          0          0          0          0          0
  impliedbounds    :      53.87       0.00        162          0        222          0          0          0
  intobj           :       0.00       0.00          0          0          0          0          0          0
  mcf              :       4.41       0.00          1          0          0          0          0          0
  oddcycle         :       0.00       0.00          0          0          0          0          0          0
  rapidlearning    :       0.00       0.00          0          0          0          0          0          0
  strongcg         :       3.93       0.00          9          0          0          0          0          0
  zerohalf         :      22.22       0.00        135          0          0          0        292          0
Pricers            :   ExecTime  SetupTime      Calls       Vars
  problem variables:       0.00          -          0          0
Branching Rules    :   ExecTime  SetupTime   BranchLP  BranchExt   BranchPS    Cutoffs    DomReds       Cuts      Conss   Children
  allfullstrong    :       0.00       0.00          0          0          0          0          0          0          0          0
  cloud            :       0.00       0.00          0          0          0          0          0          0          0          0
  distribution     :       0.00       0.00          0          0          0          0          0          0          0          0
  fullstrong       :       0.00       0.00          0          0          0          0          0          0          0          0
  inference        :       0.00       0.00          0          0          0          0          0          0          0          0
  leastinf         :       0.00       0.00          0          0          0          0          0          0          0          0
  lookahead        :       0.00       0.00          0          0          0          0          0          0          0          0
  mostinf          :       0.00       0.00          0          0          0          0          0          0          0          0
  multaggr         :       0.00       0.00          0          0          0          0          0          0          0          0
  nodereopt        :       0.00       0.00          0          0          0          0          0          0          0          0
  pscost           :       0.00       0.00          0          0          0          0          0          0          0          0
  random           :       0.00       0.00          0          0          0          0          0          0          0          0
  relpscost        :    2028.36       0.00       1753          0          0          0       2657          0       1776       3154
Primal Heuristics  :   ExecTime  SetupTime      Calls      Found       Best
  LP solutions     :       0.06          -          -          1          1
  relax solutions  :       0.00          -          -          0          0
  pseudo solutions :       0.00          -          -          0          0
  strong branching :       1.95          -          -          0          0
  actconsdiving    :       0.00       0.00          0          0          0
  alns             :     235.46       0.00          4          4          4
  bound            :       0.00       0.00          0          0          0
  clique           :       1.97       0.00          1          0          0
  coefdiving       :     254.15       0.00          6          0          0
  completesol      :       0.00       0.00          0          0          0
  conflictdiving   :       0.00       0.00          0          0          0
  crossover        :      11.22       0.00          7          0          0
  dins             :       0.00       0.00          0          0          0
  distributiondivin:     247.50       0.00          5          1          1
  dualval          :       0.00       0.00          0          0          0
  farkasdiving     :     335.92       0.00          1          0          0
  feaspump         :      96.27       0.00          1          0          0
  fixandinfer      :       0.00       0.00          0          0          0
  fracdiving       :     102.45       0.00          6          0          0
  gins             :       8.41       0.00          1          1          0
  guideddiving     :      67.90       0.00          6          1          1
  indicator        :       0.01       0.00          0          0          0
  intdiving        :       0.00       0.00          0          0          0
  intshifting      :       0.00       0.00          0          0          0
  linesearchdiving :      70.04       0.00          6          0          0
  localbranching   :       0.00       0.00          0          0          0
  locks            :       3.13       0.00          1          1          1
  lpface           :       0.01       0.00          0          0          0
  mpec             :       0.00       0.00          0          0          0
  multistart       :       0.00       0.00          0          0          0
  mutation         :       0.00       0.00          0          0          0
  nlpdiving        :       0.00       0.00          0          0          0
  objpscostdiving  :      69.03       0.00          3          0          0
  octane           :       0.00       0.00          0          0          0
  ofins            :       0.00       0.00          0          0          0
  oneopt           :       0.88       0.00          6          0          0
  proximity        :       0.00       0.00          0          0          0
  pscostdiving     :     107.09       0.00          6          0          0
  randrounding     :      11.83       0.00        223          0          0
  rens             :       1.50       0.00          1          0          0
  reoptsols        :       0.00       0.00          0          0          0
  repair           :       0.00       0.00          0          0          0
  rins             :       9.47       0.00          6          0          0
  rootsoldiving    :      44.18       0.00          3          3          0
  rounding         :       7.12       0.00        553          0          0
  shiftandpropagate:       0.00       0.00          0          0          0
  shifting         :      25.37       0.00        385         27          0
  simplerounding   :       0.01       0.00          0          0          0
  subnlp           :       0.00       0.00          0          0          0
  trivial          :       0.58       0.00          2          0          0
  trivialnegation  :       0.00       0.00          0          0          0
  trysol           :       0.00       0.00          0          0          0
  twoopt           :       0.00       0.00          0          0          0
  undercover       :       0.00       0.00          0          0          0
  vbounds          :      33.92       0.00          1          0          0
  veclendiving     :      25.63       0.00          6          0          0
  zeroobj          :       0.00       0.00          0          0          0
  zirounding       :       0.63       0.00       1000          0          0
  other solutions  :          -          -          -          0          -
Diving Statistics  :      Calls      Nodes   LP Iters Backtracks  Conflicts   MinDepth   MaxDepth   AvgDepth  RoundSols  NLeafSols  MinSolDpt  MaxSolDpt  AvgSolDpt
  actconsdiving    :          0          -          -          -          -          -          -          -          -          -          -          -          -
  coefdiving       :          6       1158      90577         23        190         85        416      216.0          0          -          -          -          -
  conflictdiving   :          0          -          -          -          -          -          -          -          -          -          -          -          -
  distributiondivin:          5        344      72014          4         54         23        322       92.2          0          1         29         29       29.0
  farkasdiving     :          1        187      92553          0          0        188        188      188.0          0          -          -          -          -
  fracdiving       :          6        714      41740         41        496         59        268      135.3          0          -          -          -          -
  guideddiving     :          6        630      19126          0         59         24        391      142.3          0          1         24         24       24.0
  linesearchdiving :          6         87      14592         10        227         33         82       49.3          0          -          -          -          -
  pscostdiving     :          6       1590      32060          1          0         55        677      295.5          0          -          -          -          -
  veclendiving     :          6        878       9224          0         47         94        261      164.2          0          -          -          -          -
Neighborhoods      :      Calls  SetupTime  SolveTime SolveNodes       Sols       Best       Exp3  EpsGreedy        UCB TgtFixRate  Opt  Inf Node Stal  Sol  Usr Othr Actv
  rens             :          1       1.25       1.63         47          0          0    0.00000   -1.00000    1.00000      0.700    0    1    0    0    0    0    0    1
  rins             :          1       1.25      79.69         78          1          1    0.00000   -1.00000    1.00000      0.900    0    0    0    1    0    0    0    1
  mutation         :          0       0.00       0.00          0          0          0    0.00000   -1.00000    1.00000      0.900    0    0    0    0    0    0    0    1
  localbranching   :          1       1.01      50.35         72          0          0    0.00000   -1.00000    1.00000      0.900    0    0    0    1    0    0    0    1
  crossover        :          0       0.00       0.00          0          0          0    0.00000   -1.00000    1.00000      0.900    0    0    0    0    0    0    0    1
  proximity        :          0       0.00       0.00          0          0          0    0.00000   -1.00000    1.00000      0.900    0    0    0    0    0    0    0    1
  zeroobjective    :          0       0.00       0.00          0          0          0    0.00000   -1.00000    1.00000      0.900    0    0    0    0    0    0    0    1
  dins             :          1       1.27      97.79         83          3          3    0.00000   -1.00000    1.00000      0.700    0    0    0    0    1    0    0    1
LP                 :       Time      Calls Iterations  Iter/call   Iter/sec  Time-0-It Calls-0-It    ItLimit
  primal LP        :     117.45         65          0       0.00       0.00     117.45         65
  dual LP          :    2201.96       4554    1167303     434.43     530.12      23.79       1867
  lex dual LP      :       0.00          0          0       0.00          -
  barrier LP       :       0.00          0          0       0.00          -       0.00          0
  resolve instable :       0.00          0          0       0.00          -
  diving/probing LP:    1182.81        461     451059     978.44     381.35
  strong branching :    1624.36       1799     710846     395.13     437.62          -          -       1138
    (at root node) :          -         47      27567     586.53          -
  conflict analysis:       7.12        242       2420      10.00     339.89
B&B Tree           :
  number of runs   :          1
  nodes            :       2463 (1578 internal, 885 leaves)
  feasible leaves  :          1
  infeas. leaves   :        150
  objective leaves :        734
  nodes (total)    :       2463 (1578 internal, 885 leaves)
  nodes left       :        382
  max depth        :        239
  max depth (total):        239
  backtracks       :        188 (7.6%)
  early backtracks :         18 (9.6%)
  nodes exc. ref.  :       1110 (45.1%)
  delayed cutoffs  :          0
  repropagations   :        661 (39557 domain reductions, 0 cutoffs)
  avg switch length:       3.14
  switching time   :     143.67
Root Node          :
  First LP value   : -1.70524613275979e-01
  First LP Iters   :     150480 (485.01 Iter/sec)
  First LP Time    :     310.26
  Final Dual Bound : -1.70287940374492e-01
  Final Root Iters :     158187
  Root LP Estimate : -1.51709479847107e-01
Solution           :
  Solutions found  :         39 (8 improvements)
  First Solution   : +0.00000000000000e+00   (in run 1, after 1 nodes, 94.87 seconds, depth 33656, found by <locks>)
  Gap First Sol.   :   infinite
  Gap Last Sol.    :       0.41 %
  Primal Bound     : -1.69585839993226e-01   (in run 1, after 883 nodes, 5545.96 seconds, depth 18, found by <relaxation>)
  Dual Bound       : -1.70260747818891e-01
  Gap              :       0.40 %
  Avg. Gap         :      19.78 % (142393.97 primal-dual integral)
  Tree Data        : 3157 nodes (2775 visited, 1578 inner, 1197 leaves, 382 open), progress: 0.0006
Tree Estimation    :       estim       value       trend  resolution      smooth
  wbe              :     3848664           -           -           -           -
  tree profile     :    37825283           -           -           -           -
  gap              :        5550     0.99604     0.00000           2        5543
  progress         :        5550     0.00062     0.00000           2        5543
  leaf-frequency   :       18922     0.43133     0.00002           2       16772
  ssg              :        5550     0.07396    -0.00000           2        5543
  open-nodes       :        5550   381.00000     0.09245           2        5543


SCIP> checksol

check best solution
solution is feasible in original problem
Violation          :    absolute    relative
  bounds           : 3.10862e-15 3.10862e-15
  integrality      : 3.10862e-15           -
  LP rows          : 3.10862e-15 3.10862e-15
  constraints      : 3.10862e-15 3.10862e-15

SCIP> write sol /local/tmp/bzfhende-tmpdir/bzfhende.miplib2017.196_s100.scip.M6400.enable_treeprofile.sol

written solution information to file </local/tmp/bzfhende-tmpdir/bzfhende.miplib2017.196_s100.scip.M640.enable_treeprofile.sol>

SCIP> quit

Disabling tree profile data collection
Read MPS: 1
MIP has 364417 vars and 14733 constraints
Read SOL: 1
Objective value computed by solver: -0.169585839993226

Integrality tolerance: 1/10000
Linear tolerance: 1/10000
Objective tolerance: 1/10000

Check SOL: Integrality 1 Constraints 1 Objective 1
Maximum violations: Integrality 0 Constraints 0 Objective 2.3e-16
@04 1566499013
-----------------------------
Do 22. Aug 20:36:53 CEST 2019
-----------------------------

=ready=
